(set-logic QF_LIA)
(declare-fun x0 () Int)
(declare-fun x1 () Int)
(declare-fun x2 () Int)
(declare-fun x3 () Int)
(declare-fun x4 () Int)
(declare-fun x5 () Int)
(declare-fun x6 () Int)
(declare-fun x7 () Int)
(declare-fun x8 () Int)
(declare-fun x9 () Int)
(declare-fun A0 () Bool)
(declare-fun A1 () Bool)
(declare-fun A2 () Bool)
(declare-fun A3 () Bool)
(declare-fun A4 () Bool)
(declare-fun A6 () Bool)
(declare-fun A7 () Bool)
(declare-fun A8 () Bool)
(declare-fun A9 () Bool)
(assert (let ((.def_0 (* 1 x0))) (let ((.def_1 (< .def_0 (- 1)))) (let ((.def_2 (not .def_1))) (let ((.def_3 (* (- 1) x9))) (let ((.def_4 (* 1 x7))) (let ((.def_5 (+ .def_4 .def_3))) (let ((.def_6 (< .def_5 1))) (let ((.def_7 (or .def_6 .def_2))) (let ((.def_8 (not .def_7))) (let ((.def_9 (* 1 x9))) (let ((.def_10 (* (- 1) x4))) (let ((.def_11 (+ .def_10 .def_9))) (let ((.def_12 (< .def_11 1))) (let ((.def_13 (not A8))) (let ((.def_14 (= .def_13 .def_12))) (let ((.def_15 (not .def_14))) (let ((.def_16 (and .def_15 .def_8))) (let ((.def_17 (* (- 1) x8))) (let ((.def_18 (< .def_17 1))) (let ((.def_19 (or .def_13 .def_18))) (let ((.def_20 (not .def_19))) (let ((.def_21 (not A9))) (let ((.def_22 (= .def_21 .def_13))) (let ((.def_23 (or .def_22 .def_20))) (let ((.def_24 (not .def_23))) (let ((.def_25 (or .def_24 .def_16))) (let ((.def_26 (not .def_25))) (let ((.def_27 (* 1 x1))) (let ((.def_28 (< .def_27 1))) (let ((.def_29 (* (- 1) x6))) (let ((.def_30 (+ .def_10 .def_29))) (let ((.def_31 (< .def_30 (- 1)))) (let ((.def_32 (and .def_31 .def_28))) (let ((.def_33 (not .def_32))) (let ((.def_34 (* 1 x4))) (let ((.def_35 (< .def_34 (- 1)))) (let ((.def_36 (and .def_35 A4))) (let ((.def_37 (not .def_36))) (let ((.def_38 (and .def_37 .def_33))) (let ((.def_39 (not .def_38))) (let ((.def_40 (< .def_3 (- 1)))) (let ((.def_41 (not .def_40))) (let ((.def_42 (< .def_17 (- 1)))) (let ((.def_43 (or .def_42 .def_41))) (let ((.def_44 (not .def_43))) (let ((.def_45 (* (- 1) x2))) (let ((.def_46 (+ .def_45 .def_10))) (let ((.def_47 (< .def_46 1))) (let ((.def_48 (* 1 x5))) (let ((.def_49 (+ .def_48 .def_34))) (let ((.def_50 (< .def_49 1))) (let ((.def_51 (not .def_50))) (let ((.def_52 (= .def_51 .def_47))) (let ((.def_53 (not .def_52))) (let ((.def_54 (and .def_53 .def_44))) (let ((.def_55 (not .def_54))) (let ((.def_56 (or .def_55 .def_39))) (let ((.def_57 (not .def_56))) (let ((.def_58 (or .def_57 .def_26))) (let ((.def_59 (not .def_58))) (let ((.def_60 (* 1 x8))) (let ((.def_61 (+ .def_34 .def_60))) (let ((.def_62 (< .def_61 (- 1)))) (let ((.def_63 (not .def_62))) (let ((.def_64 (and .def_63 A6))) (let ((.def_65 (not .def_64))) (let ((.def_66 (* (- 1) x3))) (let ((.def_67 (< .def_66 (- 1)))) (let ((.def_68 (not .def_67))) (let ((.def_69 (= .def_68 A2))) (let ((.def_70 (not .def_69))) (let ((.def_71 (and .def_70 .def_65))) (let ((.def_72 (* 1 x2))) (let ((.def_73 (* (- 1) x5))) (let ((.def_74 (+ .def_73 .def_72))) (let ((.def_75 (< .def_74 (- 1)))) (let ((.def_76 (+ .def_4 .def_72))) (let ((.def_77 (< .def_76 (- 1)))) (let ((.def_78 (or .def_77 .def_75))) (let ((.def_79 (+ .def_27 .def_73))) (let ((.def_80 (< .def_79 1))) (let ((.def_81 (not .def_80))) (let ((.def_82 (not A7))) (let ((.def_83 (or .def_82 .def_81))) (let ((.def_84 (or .def_83 .def_78))) (let ((.def_85 (not .def_84))) (let ((.def_86 (and .def_85 .def_71))) (let ((.def_87 (not .def_86))) (let ((.def_88 (< .def_73 1))) (let ((.def_89 (not .def_88))) (let ((.def_90 (or A0 .def_89))) (let ((.def_91 (or A2 A1))) (let ((.def_92 (not .def_91))) (let ((.def_93 (or .def_92 .def_90))) (let ((.def_94 (< .def_10 (- 1)))) (let ((.def_95 (* 1 x3))) (let ((.def_96 (+ .def_95 .def_73))) (let ((.def_97 (< .def_96 (- 1)))) (let ((.def_98 (not .def_97))) (let ((.def_99 (and .def_98 .def_94))) (let ((.def_100 (not .def_99))) (let ((.def_101 (+ .def_4 .def_48))) (let ((.def_102 (< .def_101 (- 1)))) (let ((.def_103 (not .def_102))) (let ((.def_104 (and A3 .def_103))) (let ((.def_105 (or .def_104 .def_100))) (let ((.def_106 (not .def_105))) (let ((.def_107 (or .def_106 .def_93))) (let ((.def_108 (not .def_107))) (let ((.def_109 (or .def_108 .def_87))) (let ((.def_110 (not .def_109))) (let ((.def_111 (or .def_110 .def_59))) (let ((.def_112 (not .def_111))) (let ((.def_113 (* (- 1) x0))) (let ((.def_114 (+ .def_113 .def_72))) (let ((.def_115 (< .def_114 (- 1)))) (let ((.def_116 (and .def_115 .def_40))) (let ((.def_117 (not .def_116))) (let ((.def_118 (not .def_18))) (let ((.def_119 (and A6 .def_118))) (let ((.def_120 (not .def_119))) (let ((.def_121 (or .def_120 .def_117))) (let ((.def_122 (not .def_121))) (let ((.def_123 (+ .def_72 .def_66))) (let ((.def_124 (< .def_123 (- 1)))) (let ((.def_125 (+ .def_17 .def_113))) (let ((.def_126 (< .def_125 1))) (let ((.def_127 (or .def_126 .def_124))) (let ((.def_128 (not .def_127))) (let ((.def_129 (< .def_29 1))) (let ((.def_130 (not .def_129))) (let ((.def_131 (+ .def_9 .def_73))) (let ((.def_132 (< .def_131 1))) (let ((.def_133 (or .def_132 .def_130))) (let ((.def_134 (not .def_133))) (let ((.def_135 (or .def_134 .def_128))) (let ((.def_136 (and .def_135 .def_122))) (let ((.def_137 (not .def_136))) (let ((.def_138 (not A0))) (let ((.def_139 (and .def_138 .def_138))) (let ((.def_140 (not .def_139))) (let ((.def_141 (* (- 1) x1))) (let ((.def_142 (+ .def_60 .def_141))) (let ((.def_143 (< .def_142 1))) (let ((.def_144 (not A6))) (let ((.def_145 (or .def_144 .def_143))) (let ((.def_146 (or .def_145 .def_140))) (let ((.def_147 (* (- 1) x7))) (let ((.def_148 (+ .def_147 .def_29))) (let ((.def_149 (< .def_148 (- 1)))) (let ((.def_150 (not .def_149))) (let ((.def_151 (or .def_150 A2))) (let ((.def_152 (and .def_21 A3))) (let ((.def_153 (not .def_152))) (let ((.def_154 (= .def_153 .def_151))) (let ((.def_155 (or .def_154 .def_146))) (let ((.def_156 (not .def_155))) (let ((.def_157 (and .def_156 .def_137))) (let ((.def_158 (not .def_157))) (let ((.def_159 (< .def_66 1))) (let ((.def_160 (not .def_159))) (let ((.def_161 (* 1 x6))) (let ((.def_162 (< .def_161 (- 1)))) (let ((.def_163 (not .def_162))) (let ((.def_164 (and .def_163 .def_160))) (let ((.def_165 (and A0 A6))) (let ((.def_166 (and .def_165 .def_164))) (let ((.def_167 (not .def_166))) (let ((.def_168 (+ .def_147 .def_66))) (let ((.def_169 (< .def_168 (- 1)))) (let ((.def_170 (not A1))) (let ((.def_171 (= .def_170 .def_169))) (let ((.def_172 (not .def_171))) (let ((.def_173 (+ .def_3 .def_60))) (let ((.def_174 (< .def_173 (- 1)))) (let ((.def_175 (or .def_174 A6))) (let ((.def_176 (not .def_175))) (let ((.def_177 (and .def_176 .def_172))) (let ((.def_178 (or .def_177 .def_167))) (let ((.def_179 (< .def_4 (- 1)))) (let ((.def_180 (not .def_179))) (let ((.def_181 (or .def_180 A4))) (let ((.def_182 (< .def_9 1))) (let ((.def_183 (and .def_182 .def_13))) (let ((.def_184 (not .def_183))) (let ((.def_185 (or .def_184 .def_181))) (let ((.def_186 (not .def_185))) (let ((.def_187 (< .def_141 1))) (let ((.def_188 (or .def_187 .def_82))) (let ((.def_189 (not .def_188))) (let ((.def_190 (< .def_0 1))) (let ((.def_191 (or A7 .def_190))) (let ((.def_192 (or .def_191 .def_189))) (let ((.def_193 (not .def_192))) (let ((.def_194 (or .def_193 .def_186))) (let ((.def_195 (or .def_194 .def_178))) (let ((.def_196 (not .def_195))) (let ((.def_197 (or .def_196 .def_158))) (let ((.def_198 (not .def_197))) (let ((.def_199 (and .def_198 .def_112))) (let ((.def_200 (not .def_199))) (let ((.def_201 (<= x9 1))) (let ((.def_202 (<= 0 x9))) (let ((.def_203 (<= x8 1))) (let ((.def_204 (<= 0 x8))) (let ((.def_205 (<= x7 1))) (let ((.def_206 (<= 0 x7))) (let ((.def_207 (<= x6 1))) (let ((.def_208 (<= 0 x6))) (let ((.def_209 (<= x5 1))) (let ((.def_210 (<= 0 x5))) (let ((.def_211 (<= x4 1))) (let ((.def_212 (<= 0 x4))) (let ((.def_213 (<= x3 1))) (let ((.def_214 (<= 0 x3))) (let ((.def_215 (<= x2 1))) (let ((.def_216 (<= 0 x2))) (let ((.def_217 (<= x1 1))) (let ((.def_218 (<= 0 x1))) (let ((.def_219 (<= x0 1))) (let ((.def_220 (<= 0 x0))) (let ((.def_221 (and .def_220 .def_219 .def_218 .def_217 .def_216 .def_215 .def_214 .def_213 .def_212 .def_211 .def_210 .def_209 .def_208 .def_207 .def_206 .def_205 .def_204 .def_203 .def_202 .def_201 .def_200))) .def_221)))))))))))))))))))))))))))))))))))))))))))))))))))))))))))))))))))))))))))))))))))))))))))))))))))))))))))))))))))))))))))))))))))))))))))))))))))))))))))))))))))))))))))))))))))))))))))))))))))))))))))))))))))))))))))))))
(check-sat)
